NAME          
ROWS
 N  OBJ
 L  c1
 L  c2
 L  c3
 L  c4
 L  c5
 L  c6
 L  c7
 L  c8
COLUMNS
    x4        OBJ       0
    x7        OBJ       0
    x1        c1        1
    x1        c2        1
    x1        c4        -1
    x1        c5        -1
    x2        c1        -1
    x2        c3        1
    x3        c4        1
    x3        c6        -1
    x3        c7        -1
    x5        c5        1
    x5        c6        1
    x5        c8        -1
    x6        c2        -1
    x6        c3        -1
    x6        c7        1
    x6        c8        1
RHS
    rhs       c1        0
    rhs       c2        -1
    rhs       c3        1
    rhs       c4        5
    rhs       c5        4
    rhs       c6        -1
    rhs       c7        -3
    rhs       c8        -3
RANGES
BOUNDS
 FX bounds    x4        23
 FX bounds    x7        -30
 MI bounds    x1
 UP bounds    x1        -7.2
 MI bounds    x2
 UP bounds    x2        -7.2
 MI bounds    x3
 UP bounds    x3        -7.2
 MI bounds    x5
 UP bounds    x5        -7.2
 MI bounds    x6
 UP bounds    x6        -7.2
ENDATA
